NAME: rand_0/map9_480
TYPE: TSP
COMMENT: autogenerated using a wonderful map creator
DIMENSION: 600
EDGE_WEIGHT_TYPE: EUC_2D
NODE_COORD_SECTION
1 36.0 94.0
2 15.0 2.0
3 34.0 4.0
4 14.0 95.0
5 22.0 3.0
6 44.0 2.0
7 41.0 94.0
8 42.0 98.0
9 9.0 95.0
10 1.0 98.0
11 32.0 3.0
12 34.0 98.0
13 1.0 96.0
14 44.0 95.0
15 4.0 5.0
16 41.0 2.0
17 9.0 94.0
18 18.0 5.0
19 6.0 94.0
20 31.0 4.0
21 6.0 98.0
22 23.0 6.0
23 30.0 94.0
24 13.0 3.0
25 13.0 96.0
26 30.0 96.0
27 32.0 4.0
28 14.0 94.0
29 1.0 2.0
30 3.0 98.0
31 10.0 99.0
32 8.0 96.0
33 25.0 4.0
34 20.0 97.0
35 41.0 95.0
36 33.0 5.0
37 40.0 99.0
38 16.0 1.0
39 9.0 97.0
40 10.0 2.0
41 22.0 97.0
42 29.0 95.0
43 43.0 3.0
44 31.0 95.0
45 20.0 96.0
46 27.0 5.0
47 29.0 99.0
48 5.0 3.0
49 15.0 6.0
50 19.0 96.0
51 12.0 5.0
52 30.0 99.0
53 32.0 1.0
54 14.0 99.0
55 37.0 96.0
56 28.0 3.0
57 37.0 95.0
58 41.0 5.0
59 4.0 1.0
60 17.0 3.0
61 1.0 99.0
62 9.0 1.0
63 17.0 94.0
64 38.0 96.0
65 21.0 94.0
66 10.0 96.0
67 23.0 98.0
68 19.0 98.0
69 10.0 95.0
70 11.0 96.0
71 5.0 97.0
72 5.0 98.0
73 38.0 97.0
74 6.0 5.0
75 4.0 2.0
76 33.0 97.0
77 18.0 1.0
78 27.0 1.0
79 2.0 4.0
80 2.0 5.0
81 27.0 4.0
82 28.0 97.0
83 11.0 3.0
84 35.0 96.0
85 40.0 96.0
86 36.0 1.0
87 14.0 97.0
88 21.0 96.0
89 15.0 99.0
90 27.0 96.0
91 6.0 3.0
92 1.0 95.0
93 13.0 4.0
94 37.0 97.0
95 16.0 96.0
96 44.0 1.0
97 43.0 4.0
98 41.0 99.0
99 15.0 98.0
100 35.0 2.0
101 4.0 4.0
102 22.0 98.0
103 31.0 96.0
104 27.0 6.0
105 24.0 95.0
106 32.0 94.0
107 26.0 95.0
108 14.0 6.0
109 20.0 4.0
110 20.0 95.0
111 31.0 1.0
112 43.0 96.0
113 11.0 2.0
114 35.0 98.0
115 22.0 96.0
116 30.0 4.0
117 37.0 98.0
118 23.0 5.0
119 24.0 6.0
120 43.0 99.0
121 32.0 2.0
122 35.0 5.0
123 15.0 3.0
124 26.0 99.0
125 24.0 96.0
126 10.0 4.0
127 16.0 95.0
128 38.0 1.0
129 8.0 97.0
130 23.0 1.0
131 14.0 5.0
132 30.0 98.0
133 28.0 95.0
134 2.0 94.0
135 36.0 99.0
136 11.0 1.0
137 3.0 2.0
138 7.0 2.0
139 25.0 97.0
140 8.0 3.0
141 35.0 6.0
142 7.0 1.0
143 21.0 4.0
144 2.0 2.0
145 2.0 96.0
146 8.0 4.0
147 19.0 3.0
148 8.0 1.0
149 25.0 98.0
150 42.0 1.0
151 41.0 3.0
152 39.0 5.0
153 11.0 98.0
154 34.0 2.0
155 13.0 99.0
156 5.0 4.0
157 37.0 5.0
158 6.0 4.0
159 5.0 99.0
160 2.0 3.0
161 29.0 1.0
162 34.0 1.0
163 3.0 95.0
164 2.0 1.0
165 21.0 97.0
166 36.0 5.0
167 1.0 1.0
168 36.0 96.0
169 16.0 4.0
170 17.0 4.0
171 8.0 98.0
172 19.0 2.0
173 30.0 97.0
174 33.0 4.0
175 12.0 97.0
176 4.0 96.0
177 15.0 1.0
178 14.0 1.0
179 5.0 96.0
180 27.0 98.0
181 37.0 3.0
182 25.0 96.0
183 18.0 96.0
184 33.0 94.0
185 24.0 98.0
186 25.0 5.0
187 17.0 2.0
188 42.0 95.0
189 38.0 6.0
190 44.0 3.0
191 18.0 97.0
192 38.0 4.0
193 12.0 2.0
194 22.0 4.0
195 25.0 3.0
196 37.0 2.0
197 20.0 6.0
198 30.0 1.0
199 33.0 95.0
200 15.0 95.0
201 3.0 94.0
202 10.0 98.0
203 36.0 98.0
204 28.0 98.0
205 25.0 95.0
206 13.0 1.0
207 41.0 6.0
208 38.0 99.0
209 40.0 1.0
210 20.0 2.0
211 7.0 5.0
212 33.0 1.0
213 3.0 5.0
214 42.0 99.0
215 31.0 99.0
216 13.0 5.0
217 5.0 1.0
218 33.0 98.0
219 44.0 5.0
220 15.0 94.0
221 39.0 94.0
222 2.0 99.0
223 17.0 96.0
224 16.0 99.0
225 40.0 95.0
226 11.0 94.0
227 39.0 96.0
228 23.0 2.0
229 3.0 6.0
230 44.0 96.0
231 32.0 6.0
232 21.0 5.0
233 28.0 2.0
234 18.0 4.0
235 34.0 96.0
236 21.0 2.0
237 27.0 3.0
238 23.0 3.0
239 39.0 98.0
240 24.0 94.0
241 18.0 17.0
242 28.0 58.0
243 28.0 67.0
244 28.0 76.0
245 9.0 72.0
246 5.0 83.0
247 28.0 85.0
248 10.0 27.0
249 34.0 12.0
250 34.0 21.0
251 31.0 86.0
252 22.0 28.0
253 43.0 60.0
254 22.0 37.0
255 37.0 35.0
256 43.0 87.0
257 13.0 83.0
258 35.0 83.0
259 7.0 12.0
260 24.0 83.0
261 1.0 90.0
262 7.0 21.0
263 16.0 88.0
264 28.0 62.0
265 40.0 45.0
266 28.0 89.0
267 40.0 54.0
268 21.0 50.0
269 25.0 20.0
270 20.0 72.0
271 31.0 81.0
272 34.0 25.0
273 31.0 90.0
274 43.0 55.0
275 13.0 51.0
276 14.0 28.0
277 37.0 30.0
278 17.0 39.0
279 13.0 87.0
280 16.0 83.0
281 36.0 61.0
282 40.0 49.0
283 10.0 8.0
284 40.0 58.0
285 10.0 26.0
286 25.0 24.0
287 22.0 9.0
288 31.0 76.0
289 37.0 16.0
290 22.0 27.0
291 13.0 55.0
292 43.0 68.0
293 43.0 77.0
294 16.0 60.0
295 13.0 73.0
296 1.0 71.0
297 28.0 34.0
298 28.0 43.0
299 9.0 39.0
300 28.0 52.0
301 5.0 50.0
302 27.0 83.0
303 25.0 10.0
304 31.0 53.0
305 25.0 19.0
306 2.0 17.0
307 31.0 62.0
308 25.0 28.0
309 10.0 39.0
310 31.0 71.0
311 22.0 13.0
312 43.0 45.0
313 13.0 41.0
314 4.0 72.0
315 13.0 50.0
316 16.0 46.0
317 16.0 55.0
318 1.0 66.0
319 1.0 75.0
320 1.0 84.0
321 28.0 56.0
322 7.0 91.0
323 8.0 83.0
324 19.0 83.0
325 10.0 25.0
326 39.0 61.0
327 19.0 92.0
328 31.0 66.0
329 43.0 31.0
330 43.0 40.0
331 31.0 84.0
332 13.0 45.0
333 4.0 76.0
334 16.0 41.0
335 13.0 54.0
336 4.0 85.0
337 1.0 61.0
338 36.0 28.0
339 16.0 59.0
340 26.0 72.0
341 38.0 83.0
342 40.0 25.0
343 7.0 86.0
344 19.0 78.0
345 23.0 39.0
346 32.0 17.0
347 13.0 13.0
348 20.0 61.0
349 43.0 26.0
350 22.0 51.0
351 13.0 40.0
352 43.0 53.0
353 13.0 49.0
354 4.0 80.0
355 22.0 79.0
356 28.0 10.0
357 37.0 77.0
358 5.0 17.0
359 28.0 19.0
360 37.0 86.0
361 28.0 28.0
362 28.0 37.0
363 40.0 11.0
364 18.0 72.0
365 19.0 46.0
366 31.0 38.0
367 43.0 12.0
368 13.0 8.0
369 31.0 56.0
370 35.0 17.0
371 24.0 17.0
372 43.0 30.0
373 31.0 65.0
374 23.0 61.0
375 13.0 26.0
376 13.0 35.0
377 1.0 33.0
378 13.0 44.0
379 1.0 42.0
380 16.0 40.0
381 22.0 74.0
382 34.0 76.0
383 16.0 49.0
384 28.0 23.0
385 7.0 58.0
386 19.0 50.0
387 39.0 28.0
388 40.0 91.0
389 19.0 68.0
390 31.0 42.0
391 43.0 16.0
392 25.0 75.0
393 4.0 52.0
394 43.0 34.0
395 16.0 26.0
396 34.0 71.0
397 37.0 67.0
398 14.0 83.0
399 38.0 50.0
400 7.0 44.0
401 7.0 53.0
402 31.0 10.0
403 19.0 54.0
404 40.0 86.0
405 19.0 63.0
406 20.0 28.0
407 10.0 72.0
408 4.0 38.0
409 43.0 20.0
410 25.0 70.0
411 10.0 81.0
412 25.0 79.0
413 10.0 90.0
414 34.0 57.0
415 1.0 32.0
416 16.0 30.0
417 34.0 75.0
418 18.0 39.0
419 7.0 39.0
420 7.0 48.0
421 19.0 13.0
422 7.0 57.0
423 19.0 31.0
424 29.0 72.0
425 40.0 72.0
426 31.0 23.0
427 12.0 28.0
428 34.0 52.0
429 22.0 50.0
430 37.0 48.0
431 34.0 61.0
432 34.0 70.0
433 37.0 66.0
434 7.0 52.0
435 8.0 17.0
436 7.0 61.0
437 19.0 26.0
438 18.0 61.0
439 42.0 28.0
440 21.0 72.0
441 40.0 85.0
442 4.0 10.0
443 10.0 53.0
444 34.0 20.0
445 25.0 60.0
446 37.0 25.0
447 1.0 13.0
448 34.0 56.0
449 25.0 87.0
450 43.0 86.0
451 14.0 50.0
452 7.0 29.0
453 7.0 38.0
454 28.0 70.0
455 36.0 83.0
456 28.0 79.0
457 19.0 21.0
458 28.0 88.0
459 11.0 17.0
460 40.0 62.0
461 31.0 13.0
462 40.0 89.0
463 25.0 37.0
464 10.0 48.0
465 34.0 15.0
466 34.0 51.0
467 13.0 86.0
468 15.0 28.0
469 16.0 91.0
470 28.0 65.0
471 5.0 72.0
472 40.0 39.0
473 28.0 83.0
474 40.0 57.0
475 25.0 23.0
476 25.0 32.0
477 4.0 9.0
478 10.0 43.0
479 10.0 61.0
480 34.0 28.0
481 22.0 26.0
482 10.0 70.0
483 22.0 35.0
484 43.0 67.0
485 24.0 72.0
486 13.0 72.0
487 43.0 85.0
488 7.0 19.0
489 7.0 28.0
490 28.0 78.0
491 21.0 39.0
492 40.0 52.0
493 41.0 17.0
494 9.0 83.0
495 10.0 20.0
496 10.0 29.0
497 22.0 12.0
498 31.0 79.0
499 37.0 10.0
500 25.0 54.0
501 37.0 19.0
502 3.0 17.0
503 43.0 62.0
504 43.0 71.0
505 16.0 63.0
506 1.0 74.0
507 16.0 72.0
508 13.0 85.0
509 36.0 50.0
510 1.0 83.0
511 28.0 46.0
512 1.0 92.0
513 7.0 23.0
514 28.0 82.0
515 33.0 17.0
516 21.0 61.0
517 19.0 91.0
518 41.0 39.0
519 10.0 33.0
520 31.0 74.0
521 22.0 16.0
522 31.0 83.0
523 43.0 48.0
524 20.0 83.0
525 37.0 23.0
526 13.0 62.0
527 16.0 58.0
528 16.0 67.0
529 28.0 32.0
530 13.0 80.0
531 28.0 41.0
532 13.0 89.0
533 16.0 85.0
534 40.0 15.0
535 40.0 24.0
536 40.0 33.0
537 19.0 77.0
538 10.0 28.0
539 25.0 26.0
540 31.0 69.0
541 22.0 11.0
542 31.0 78.0
543 43.0 43.0
544 37.0 9.0
545 13.0 39.0
546 43.0 52.0
547 4.0 70.0
548 23.0 83.0
549 4.0 79.0
550 16.0 44.0
551 13.0 57.0
552 1.0 55.0
553 4.0 88.0
554 16.0 71.0
555 28.0 45.0
556 40.0 10.0
557 28.0 63.0
558 40.0 28.0
559 7.0 89.0
560 30.0 72.0
561 42.0 83.0
562 10.0 23.0
563 10.0 32.0
564 31.0 64.0
565 13.0 25.0
566 4.0 56.0
567 43.0 38.0
568 1.0 41.0
569 43.0 56.0
570 34.0 84.0
571 28.0 22.0
572 28.0 40.0
573 28.0 49.0
574 40.0 23.0
575 21.0 28.0
576 6.0 39.0
577 10.0 9.0
578 19.0 76.0
579 31.0 59.0
580 31.0 68.0
581 4.0 51.0
582 43.0 33.0
583 16.0 25.0
584 1.0 36.0
585 16.0 34.0
586 1.0 45.0
587 4.0 78.0
588 34.0 79.0
589 13.0 56.0
590 16.0 52.0
591 28.0 17.0
592 22.0 86.0
593 1.0 63.0
594 7.0 70.0
595 26.0 83.0
596 31.0 27.0
597 10.0 13.0
598 31.0 45.0
599 43.0 10.0
600 19.0 89.0
601 31.0 54.0
602 32.0 28.0
603 16.0 11.0
604 1.0 22.0
605 34.0 65.0
606 16.0 29.0
607 4.0 73.0
608 34.0 83.0
609 16.0 47.0
610 1.0 58.0
611 37.0 79.0
612 22.0 90.0
613 37.0 88.0
614 40.0 13.0
615 7.0 74.0
616 8.0 39.0
617 19.0 39.0
618 30.0 39.0
619 39.0 17.0
620 19.0 48.0
621 42.0 50.0
622 31.0 22.0
623 19.0 75.0
624 31.0 40.0
625 4.0 23.0
626 31.0 49.0
627 43.0 14.0
628 13.0 10.0
629 31.0 58.0
630 1.0 8.0
631 1.0 17.0
632 13.0 19.0
633 1.0 26.0
634 24.0 28.0
635 13.0 37.0
636 34.0 69.0
637 16.0 33.0
638 1.0 44.0
639 22.0 76.0
640 34.0 78.0
641 34.0 87.0
642 22.0 85.0
643 37.0 92.0
644 7.0 78.0
645 31.0 8.0
646 4.0 27.0
647 4.0 36.0
648 43.0 18.0
649 10.0 79.0
650 16.0 10.0
651 4.0 45.0
652 1.0 21.0
653 37.0 51.0
654 16.0 28.0
655 34.0 82.0
656 28.0 11.0
657 7.0 46.0
658 7.0 55.0
659 19.0 20.0
660 31.0 21.0
661 31.0 39.0
662 10.0 65.0
663 34.0 32.0
664 25.0 63.0
665 13.0 9.0
666 16.0 14.0
667 37.0 46.0
668 34.0 59.0
669 34.0 68.0
670 22.0 75.0
671 7.0 32.0
672 42.0 17.0
673 7.0 59.0
674 28.0 91.0
675 7.0 68.0
676 40.0 65.0
677 40.0 74.0
678 40.0 83.0
679 29.0 83.0
680 4.0 8.0
681 43.0 8.0
682 25.0 58.0
683 4.0 35.0
684 25.0 67.0
685 34.0 45.0
686 22.0 43.0
687 3.0 39.0
688 37.0 41.0
689 25.0 85.0
690 22.0 61.0
691 7.0 36.0
692 7.0 54.0
693 19.0 19.0
694 40.0 78.0
695 33.0 39.0
696 4.0 12.0
697 10.0 55.0
698 37.0 18.0
699 10.0 64.0
700 22.0 29.0
701 25.0 71.0
702 25.0 80.0
703 22.0 56.0
704 43.0 88.0
705 13.0 84.0
706 7.0 13.0
707 7.0 31.0
708 11.0 28.0
709 25.0 30.0
710 4.0 16.0
711 22.0 15.0
712 10.0 50.0
713 25.0 48.0
714 25.0 57.0
715 25.0 66.0
716 22.0 42.0
717 34.0 44.0
718 43.0 74.0
719 32.0 83.0
720 13.0 79.0
START_DEPOT_SECTION
1
2
3
4
5
6
7
8
9
10
11
12
13
14
15
16
17
18
19
20
21
22
23
24
25
26
27
28
29
30
31
32
33
34
35
36
37
38
39
40
41
42
43
44
45
46
47
48
49
50
51
52
53
54
55
56
57
58
59
60
61
62
63
64
65
66
67
68
69
70
71
72
73
74
75
76
77
78
79
80
81
82
83
84
85
86
87
88
89
90
91
92
93
94
95
96
97
98
99
100
101
102
103
104
105
106
107
108
109
110
111
112
113
114
115
116
117
118
119
120
-1
END_DEPOT_SECTION
121
122
123
124
125
126
127
128
129
130
131
132
133
134
135
136
137
138
139
140
141
142
143
144
145
146
147
148
149
150
151
152
153
154
155
156
157
158
159
160
161
162
163
164
165
166
167
168
169
170
171
172
173
174
175
176
177
178
179
180
181
182
183
184
185
186
187
188
189
190
191
192
193
194
195
196
197
198
199
200
201
202
203
204
205
206
207
208
209
210
211
212
213
214
215
216
217
218
219
220
221
222
223
224
225
226
227
228
229
230
231
232
233
234
235
236
237
238
239
240
-1
EOF
